Welcome to the CBC MILP Solver 
Version: 2.10.3 
Build Date: Dec 15 2019 

command line - /home/cdmonsalvea/AI_OR_Workflow/.venv/lib/python3.10/site-packages/pulp/solverdir/cbc/linux/64/cbc /tmp/86f806ab99054ef992556d503820d3df-pulp.mps -sec 3600 -timeMode elapsed -branch -printingOptions all -solution /tmp/86f806ab99054ef992556d503820d3df-pulp.sol (default strategy 1)
At line 2 NAME          MODEL
At line 3 ROWS
At line 53 COLUMNS
At line 1854 RHS
At line 1903 BOUNDS
At line 1928 ENDATA
Problem MODEL has 48 rows, 600 columns and 1176 elements
Coin0008I MODEL read with 0 errors
seconds was changed from 1e+100 to 3600
Option for timeMode changed from cpu to elapsed
Continuous objective value is 2.50814e+07 - 0.00 seconds
Cgl0004I processed model has 48 rows, 600 columns (24 integer (24 of which binary)) and 1176 elements
Cbc0038I Initial state - 24 integers unsatisfied sum - 5.66727
Cbc0038I Pass   1: suminf.    0.38536 (1) obj. 3.36302e+08 iterations 24
Cbc0038I Solution found of 3.39255e+08
Cbc0038I Relaxing continuous gives 2.46724e+08
Cbc0038I Before mini branch and bound, 0 integers at bound fixed and 529 continuous
Cbc0038I Full problem 48 rows 600 columns, reduced to 44 rows 63 columns
Cbc0038I Mini branch and bound improved solution from 2.46724e+08 to 8.36724e+07 (0.01 seconds)
Cbc0038I Freeing continuous variables gives a solution of 7.91172e+07
Cbc0038I Round again with cutoff of 7.37137e+07
Cbc0038I Pass   2: suminf.    2.08562 (12) obj. 7.37137e+07 iterations 32
Cbc0038I Pass   3: suminf.    0.65400 (4) obj. 7.37137e+07 iterations 26
Cbc0038I Pass   4: suminf.    0.66185 (4) obj. 7.37137e+07 iterations 9
Cbc0038I Pass   5: suminf.    1.49678 (4) obj. 7.37137e+07 iterations 9
Cbc0038I Pass   6: suminf.    1.49678 (4) obj. 7.37137e+07 iterations 0
Cbc0038I Pass   7: suminf.    1.52137 (4) obj. 7.37137e+07 iterations 2
Cbc0038I Pass   8: suminf.    1.49678 (4) obj. 7.37137e+07 iterations 1
Cbc0038I Pass   9: suminf.    1.32179 (4) obj. 7.37137e+07 iterations 10
Cbc0038I Pass  10: suminf.    0.65548 (4) obj. 7.37137e+07 iterations 4
Cbc0038I Pass  11: suminf.    1.49678 (4) obj. 7.37137e+07 iterations 7
Cbc0038I Pass  12: suminf.    1.49678 (4) obj. 7.37137e+07 iterations 0
Cbc0038I Pass  13: suminf.    1.52137 (4) obj. 7.37137e+07 iterations 2
Cbc0038I Pass  14: suminf.    1.49678 (4) obj. 7.37137e+07 iterations 1
Cbc0038I Pass  15: suminf.    1.32197 (4) obj. 7.37137e+07 iterations 2
Cbc0038I Pass  16: suminf.    1.32197 (4) obj. 7.37137e+07 iterations 0
Cbc0038I Pass  17: suminf.    1.49678 (4) obj. 7.37137e+07 iterations 3
Cbc0038I Pass  18: suminf.    1.49678 (4) obj. 7.37137e+07 iterations 0
Cbc0038I Pass  19: suminf.    1.52137 (4) obj. 7.37137e+07 iterations 2
Cbc0038I Pass  20: suminf.    1.49678 (4) obj. 7.37137e+07 iterations 1
Cbc0038I Pass  21: suminf.    1.06735 (4) obj. 7.37137e+07 iterations 6
Cbc0038I Pass  22: suminf.    0.74986 (4) obj. 7.37137e+07 iterations 2
Cbc0038I Pass  23: suminf.    1.49678 (4) obj. 7.37137e+07 iterations 4
Cbc0038I Pass  24: suminf.    1.49678 (4) obj. 7.37137e+07 iterations 0
Cbc0038I Pass  25: suminf.    1.52137 (4) obj. 7.37137e+07 iterations 2
Cbc0038I Pass  26: suminf.    1.49678 (4) obj. 7.37137e+07 iterations 1
Cbc0038I Pass  27: suminf.    1.83712 (5) obj. 7.37137e+07 iterations 6
Cbc0038I Pass  28: suminf.    1.83712 (5) obj. 7.37137e+07 iterations 0
Cbc0038I Pass  29: suminf.    2.13075 (5) obj. 7.37137e+07 iterations 5
Cbc0038I Pass  30: suminf.    2.13075 (5) obj. 7.37137e+07 iterations 0
Cbc0038I Pass  31: suminf.    1.49854 (5) obj. 7.37137e+07 iterations 4
Cbc0038I No solution found this major pass
Cbc0038I Before mini branch and bound, 0 integers at bound fixed and 537 continuous
Cbc0038I Full problem 48 rows 600 columns, reduced to 29 rows 41 columns
Cbc0038I Mini branch and bound improved solution from 7.91172e+07 to 7.54983e+07 (0.02 seconds)
Cbc0038I Round again with cutoff of 6.39872e+07
Cbc0038I Pass  31: suminf.    2.29678 (13) obj. 6.39872e+07 iterations 1
Cbc0038I Pass  32: suminf.    1.69664 (8) obj. 6.39872e+07 iterations 27
Cbc0038I Pass  33: suminf.    2.95433 (8) obj. 6.39872e+07 iterations 12
Cbc0038I Pass  34: suminf.    2.51183 (8) obj. 6.39872e+07 iterations 1
Cbc0038I Pass  35: suminf.    2.95433 (8) obj. 6.39872e+07 iterations 2
Cbc0038I Pass  36: suminf.    1.42089 (7) obj. 6.39872e+07 iterations 12
Cbc0038I Pass  37: suminf.    1.24971 (6) obj. 6.39872e+07 iterations 1
Cbc0038I Pass  38: suminf.    2.46193 (8) obj. 6.39872e+07 iterations 8
Cbc0038I Pass  39: suminf.    2.46193 (8) obj. 6.39872e+07 iterations 0
Cbc0038I Pass  40: suminf.    1.53062 (7) obj. 6.39872e+07 iterations 14
Cbc0038I Pass  41: suminf.    2.24333 (8) obj. 6.39872e+07 iterations 16
Cbc0038I Pass  42: suminf.    2.24333 (8) obj. 6.39872e+07 iterations 0
Cbc0038I Pass  43: suminf.    3.17234 (9) obj. 6.39872e+07 iterations 10
Cbc0038I Pass  44: suminf.    3.14098 (9) obj. 6.39872e+07 iterations 1
Cbc0038I Pass  45: suminf.    3.17234 (9) obj. 6.39872e+07 iterations 3
Cbc0038I Pass  46: suminf.    2.13771 (7) obj. 6.39872e+07 iterations 15
Cbc0038I Pass  47: suminf.    1.39438 (7) obj. 6.39872e+07 iterations 6
Cbc0038I Pass  48: suminf.    2.75328 (9) obj. 6.39872e+07 iterations 12
Cbc0038I Pass  49: suminf.    2.75328 (9) obj. 6.39872e+07 iterations 0
Cbc0038I Pass  50: suminf.    1.96490 (8) obj. 6.39872e+07 iterations 6
Cbc0038I Pass  51: suminf.    2.95433 (8) obj. 6.39872e+07 iterations 8
Cbc0038I Pass  52: suminf.    2.51183 (8) obj. 6.39872e+07 iterations 1
Cbc0038I Pass  53: suminf.    2.95433 (8) obj. 6.39872e+07 iterations 2
Cbc0038I Pass  54: suminf.    2.07048 (8) obj. 6.39872e+07 iterations 9
Cbc0038I Pass  55: suminf.    1.88929 (7) obj. 6.39872e+07 iterations 2
Cbc0038I Pass  56: suminf.    2.00742 (8) obj. 6.39872e+07 iterations 11
Cbc0038I Pass  57: suminf.    2.98925 (9) obj. 6.39872e+07 iterations 16
Cbc0038I Pass  58: suminf.    2.98925 (9) obj. 6.39872e+07 iterations 0
Cbc0038I Pass  59: suminf.    2.71510 (8) obj. 6.39872e+07 iterations 2
Cbc0038I Pass  60: suminf.    2.51183 (8) obj. 6.39872e+07 iterations 1
Cbc0038I No solution found this major pass
Cbc0038I Before mini branch and bound, 0 integers at bound fixed and 533 continuous
Cbc0038I Full problem 48 rows 600 columns, reduced to 26 rows 43 columns
Cbc0038I Mini branch and bound did not improve solution (0.03 seconds)
Cbc0038I After 0.03 seconds - Feasibility pump exiting with objective of 7.54983e+07 - took 0.02 seconds
Cbc0012I Integer solution of 75498279 found by feasibility pump after 0 iterations and 0 nodes (0.03 seconds)
Cbc0012I Integer solution of 75186291 found by DiveCoefficient after 0 iterations and 0 nodes (0.03 seconds)
Cbc0012I Integer solution of 70339949 found by DiveCoefficient after 27 iterations and 0 nodes (0.03 seconds)
Cbc0031I 26 added rows had average density of 28.615385
Cbc0013I At root node, 26 cuts changed objective from 25081402 to 68810059 in 3 passes
Cbc0014I Cut generator 0 (Probing) - 0 row cuts average 0.0 elements, 0 column cuts (0 active)  in 0.001 seconds - new frequency is -100
Cbc0014I Cut generator 1 (Gomory) - 24 row cuts average 24.0 elements, 0 column cuts (0 active)  in 0.000 seconds - new frequency is 1
Cbc0014I Cut generator 2 (Knapsack) - 0 row cuts average 0.0 elements, 0 column cuts (0 active)  in 0.000 seconds - new frequency is -100
Cbc0014I Cut generator 3 (Clique) - 0 row cuts average 0.0 elements, 0 column cuts (0 active)  in 0.000 seconds - new frequency is -100
Cbc0014I Cut generator 4 (MixedIntegerRounding2) - 0 row cuts average 0.0 elements, 0 column cuts (0 active)  in 0.000 seconds - new frequency is -100
Cbc0014I Cut generator 5 (FlowCover) - 0 row cuts average 0.0 elements, 0 column cuts (0 active)  in 0.000 seconds - new frequency is -100
Cbc0014I Cut generator 6 (TwoMirCuts) - 26 row cuts average 28.6 elements, 0 column cuts (0 active)  in 0.001 seconds - new frequency is 1
Cbc0016I Integer solution of 70138563 found by strong branching after 35 iterations and 0 nodes (0.03 seconds)
Cbc0001I Search completed - best objective 70138563.04889242, took 35 iterations and 0 nodes (0.03 seconds)
Cbc0032I Strong branching done 4 times (9 iterations), fathomed 1 nodes and fixed 0 variables
Cbc0035I Maximum depth 0, 0 variables fixed on reduced cost
Cuts at root node changed objective from 2.50814e+07 to 7.23786e+07
Probing was tried 3 times and created 0 cuts of which 0 were active after adding rounds of cuts (0.001 seconds)
Gomory was tried 3 times and created 24 cuts of which 0 were active after adding rounds of cuts (0.000 seconds)
Knapsack was tried 3 times and created 0 cuts of which 0 were active after adding rounds of cuts (0.000 seconds)
Clique was tried 3 times and created 0 cuts of which 0 were active after adding rounds of cuts (0.000 seconds)
MixedIntegerRounding2 was tried 3 times and created 0 cuts of which 0 were active after adding rounds of cuts (0.000 seconds)
FlowCover was tried 3 times and created 0 cuts of which 0 were active after adding rounds of cuts (0.000 seconds)
TwoMirCuts was tried 3 times and created 26 cuts of which 0 were active after adding rounds of cuts (0.001 seconds)
ZeroHalf was tried 1 times and created 0 cuts of which 0 were active after adding rounds of cuts (0.000 seconds)

Result - Optimal solution found

Objective value:                70138563.04889242
Enumerated nodes:               0
Total iterations:               35
Time (CPU seconds):             0.04
Time (Wallclock seconds):       0.04

Option for printingOptions changed from normal to all
Total time (CPU seconds):       0.04   (Wallclock seconds):       0.04

